data/KSEM09/002.cnf.opb
* #variable= 8 #constraint= 8 #product= 20 sizeproduct= 8
min: 1 x2 x1 1 x4 x3 1 x6 x5 1 x8 x7 ;
1 x2 ~x1 1 x2 x1 >= 1;
1 x4 ~x3 1 x4 x3 >= 1;
1 x6 ~x5 1 x6 x5 >= 1;
1 x8 ~x7 1 x8 x7 >= 1;
1 x1 ~x2 1 x5 ~x6 1 x1 x2 x5 x6 >= 1;
1 x1 ~x2 1 x7 ~x8 1 x1 x2 x7 x8 >= 1;
1 x3 ~x4 1 x5 ~x6 1 x3 x4 x5 x6 >= 1;
1 x3 ~x4 1 x7 ~x8 1 x3 x4 x7 x8 >= 1;
